c description: Random 3-CNF over 22 variables and 94 clauses
c generator: CNFgen (0.9.2)
c copyright: (C) 2012-2022 Massimo Lauria <massimo.lauria@uniroma1.it>
c url: https://massimolauria.net/cnfgen
c command line: cnfgen --output CNF_4.28/22_bit_94_660.cnf randkcnf 3 22 94
c
p cnf 22 94
2 13 -14 0
-1 -2 5 0
8 12 15 0
-1 12 19 0
1 4 -18 0
-8 11 21 0
3 13 21 0
-3 11 -21 0
-7 -9 -11 0
4 -17 19 0
-1 17 20 0
-9 15 -16 0
18 20 -21 0
-2 -7 -20 0
5 12 13 0
-10 12 -13 0
2 -17 20 0
5 15 -19 0
-5 7 -10 0
-12 -16 -20 0
2 3 -19 0
-4 -5 14 0
-6 -14 -18 0
10 15 17 0
3 -6 -17 0
-10 -14 -22 0
4 -14 21 0
2 -16 22 0
-2 10 -18 0
-3 -17 21 0
-3 -4 19 0
-2 -6 20 0
8 -13 -22 0
4 12 -17 0
-10 14 -22 0
-5 17 -21 0
-2 -11 -17 0
9 -16 21 0
3 10 16 0
1 -4 -22 0
-4 13 21 0
-8 11 -13 0
9 -11 -14 0
5 -6 -16 0
8 10 -22 0
-16 17 -20 0
7 -11 15 0
-11 -12 15 0
-2 -8 22 0
-2 -6 -9 0
-2 -13 20 0
4 -6 -12 0
2 -8 -16 0
-5 12 -17 0
1 15 20 0
-2 -4 10 0
7 -8 -14 0
6 13 -14 0
7 -8 -18 0
-16 18 -19 0
-3 6 -21 0
2 -15 19 0
-5 15 22 0
-15 17 -19 0
-8 9 16 0
4 6 7 0
-11 -17 -19 0
-6 18 19 0
6 -13 22 0
-8 13 18 0
-1 3 -10 0
1 15 21 0
-7 -9 18 0
16 19 21 0
4 10 -13 0
-14 19 21 0
1 -2 -10 0
7 9 15 0
3 4 20 0
-12 -17 -19 0
-1 -4 19 0
-3 -11 12 0
1 -10 18 0
5 9 -22 0
20 -21 -22 0
-3 -13 15 0
17 -21 -22 0
4 7 20 0
-11 -15 18 0
-10 -12 -21 0
-3 -15 -18 0
3 18 -19 0
-10 -15 -16 0
-1 2 -5 0
